(declare-fun v11 () (_ BitVec 1))
(assert
(let (($e7 (_ bv416  12)))
(let (($e14 (_ bv0   9)))
(let (($e19 (_ bv0   11)))
(let (($e22 (_ bv0 2)))
(let (($e80 (concat $e19 v11)))
(let (($e83 (bvand        $e80         $e7  )))
(let (($e84 (concat v11 $e14)))
(let (($e86 (concat $e22 $e84)))
(let (($e87 (bvand $e86 $e83)))
            (ite        v11   $e87 $e83)
                                                                                                                                                                                                                                                                                                                                                                                                                                                                                                                                                                                                                                                                                                                                                                                                                                                                                                                                                                                                                                                                                                                                                                                                                                                                                                                                                                                                                                                                                                                                                                                                                                                                                                                                                                                                                                                                                                                                                                                                                                                                                                                                                                                                                                                                                                                                                                                                                                                                                                                                                                                                                                                                                                                                                                                                                                                                                                                                                                                                                                                                                                                                                                                                                                                                                                                                                                                                                                                                                                                                                                                                                                                                                                                                                                                                                                                                                                                                                                                                                                                                                                                                                                                                                                                                                                                                                                                                                                                                                                                                                                                                                                                                                                                                                                                                                                                                                                                                                                                                                                                                                                                                                                                                                                                                                                                                                                                                                                                                                                                                                                                                                                                                                                                                                                                                                                                                                                                                                                                                             )) ))  )                            )  )    )      )      )
